solving instance uflp nldep holmberg 5 pardivexp
Set parameter TokenServer to value "licences.gerad.lan"
Set parameter MIPGap to value 1e-06
Set parameter FuncPieceError to value 1e-06
Set parameter Threads to value 1
Set parameter FuncPieces to value -2
Set parameter TimeLimit to value 3600
Gurobi Optimizer version 12.0.2 build v12.0.2rc0 (linux64 - "AlmaLinux 9.6 (Sage Margay)")

CPU model: Intel(R) Xeon(R) Gold 6258R CPU @ 2.70GHz, instruction set [SSE2|AVX|AVX2|AVX512]
Thread count: 56 physical cores, 56 logical processors, using up to 1 threads

Non-default parameters:
TimeLimit  3600
MIPGap  1e-06
Threads  1
FuncPieces  -2
FuncPieceError  1e-06

Optimize a model with 590 rows, 570 columns and 2080 nonzeros
Model fingerprint: 0x8720913c
Model has 20 function constraints treated as nonlinear
  10 EXP, 10 POW
Variable types: 560 continuous, 10 integer (10 binary)
Coefficient statistics:
  Matrix range     [1e-02, 6e+02]
  Objective range  [1e+00, 8e+02]
  Bounds range     [1e+00, 1e+10]
  RHS range        [3e-01, 3e+00]
Warning: Model contains large bounds
         Consider reformulating model or setting NumericFocus parameter
         to avoid numerical issues.
Presolve removed 20 rows and 20 columns
Presolve time: 0.00s
Presolved: 660 rows, 551 columns, 2210 nonzeros
Presolved model has 10 bilinear constraint(s)
Presolved model has 10 nonlinear constraint(s)

Solving non-convex MINLP

Variable types: 541 continuous, 10 integer (10 binary)
Found heuristic solution: objective 22955.000000

Root relaxation: objective 4.730190e+03, 61 iterations, 0.00 seconds (0.00 work units)

    Nodes    |    Current Node    |     Objective Bounds      |     Work
 Expl Unexpl |  Obj  Depth IntInf | Incumbent    BestBd   Gap | It/Node Time

     0     0 4730.18967    0   20 22955.0000 4730.18967  79.4%     -    0s
H    0     0                    20282.918443 4730.18967  76.7%     -    0s
H    0     0                    20281.066358 4730.18967  76.7%     -    0s
H    0     0                    20275.112507 4730.18967  76.7%     -    0s
     0     0 4730.18967    0   20 20275.1125 4730.18967  76.7%     -    0s
H    0     0                    4748.1537996 4730.18967  0.38%     -    0s
H    0     0                    4747.6285144 4730.18967  0.37%     -    0s
     0     1 4735.31479    0   20 4747.62851 4735.31479  0.26%     -    0s
*   10     1               6    4747.6285119 4747.62257  0.00%   4.0    0s

Explored 12 nodes (102 simplex iterations) in 0.07 seconds (0.03 work units)
Thread count was 1 (of 56 available processors)

Solution count 7: 4747.63 4747.63 4748.15 ... 22955

Optimal solution found (tolerance 1.00e-06)
Best objective 4.747628511935e+03, best bound 4.747628511935e+03, gap 0.0000%

User-callback calls 424, time in user-callback 0.00 sec
reading holmberg data file ../../../../../instances/uflp/holmberg/p5
primal_bound = 4747.628511934612, dual_bound = 4747.628511934612, gap = 0.0, time = 0.08
OPTIMAL LOCATIONS:
y[1] = 1.0
y[2] = 1.0
y[3] = 1.0
y[4] = 1.0
y[5] = 1.0
y[6] = 1.0
y[7] = 1.0
y[8] = 1.0
y[9] = 1.0
y[10] = 1.0
OPTIMAL WAREHOUSING:
f[1] = 214.0
f[2] = 126.0
f[3] = 143.0
f[4] = 171.0
f[5] = 252.0
f[6] = 113.0
f[7] = 109.0
f[8] = 53.0
f[9] = 188.0
f[10] = 87.0
OPTIMAL WAREHOUSING COSTS:
nlobj[1] = 3.0025913350282973
nlobj[2] = 1.031685368851173
nlobj[3] = 1.976767859805285
nlobj[4] = 2.6454828069975083
nlobj[5] = 7.050827670736548
nlobj[6] = 1.1907575229389085
nlobj[7] = 1.2549602393459858
nlobj[8] = 0.8423862140727276
nlobj[9] = 1.9416814219650076
nlobj[10] = 0.6913714948707108
OPTIMAL ASSIGNMENTS:
x[1, 18] = 1.0
x[1, 29] = 1.0
x[1, 33] = 1.0
x[1, 39] = 1.0
x[1, 46] = 1.0
x[1, 48] = 1.0
x[1, 50] = 1.0
x[2, 3] = 1.0
x[2, 10] = 1.0
x[2, 27] = 1.0
x[2, 41] = 1.0
x[2, 43] = 1.0
x[3, 7] = 1.0
x[3, 14] = 1.0
x[3, 25] = 1.0
x[3, 31] = 1.0
x[4, 5] = 1.0
x[4, 13] = 1.0
x[4, 16] = 1.0
x[4, 21] = 1.0
x[4, 34] = 1.0
x[4, 38] = 1.0
x[5, 8] = 1.0
x[5, 9] = 1.0
x[5, 17] = 1.0
x[5, 24] = 1.0
x[5, 36] = 1.0
x[5, 37] = 1.0
x[5, 40] = 1.0
x[5, 47] = 1.0
x[5, 49] = 1.0
x[6, 26] = 1.0
x[6, 28] = 1.0
x[6, 30] = 1.0
x[6, 44] = 1.0
x[7, 4] = 1.0
x[7, 23] = 1.0
x[7, 32] = 1.0
x[8, 20] = 1.0
x[8, 45] = 1.0
x[9, 1] = 1.0
x[9, 2] = 1.0
x[9, 6] = 1.0
x[9, 12] = 1.0
x[9, 15] = 1.0
x[9, 22] = 1.0
x[9, 42] = 1.0
x[10, 11] = 1.0
x[10, 19] = 1.0
x[10, 35] = 1.0
fixed costs = 4314.0
assignment costs = 4726.0
warehousing costs = 21.628511934612156
total cost = 4747.628511934612
